68
1 0 50
2 0 13
2 1 20
3 0 8
3 1 33
3 2 27
4 0 27
4 1 48
4 2 52
4 3 16
5 0 21
5 1 33
5 2 4
5 3 44
5 4 46
6 0 18
6 1 53
6 2 32
6 3 49
6 4 1
6 5 6
7 0 42
7 1 9
7 2 51
7 3 43
7 4 1
7 5 18
7 6 35
8 0 4
8 1 11
8 2 48
8 3 41
8 4 32
8 5 15
8 6 21
8 7 40
9 0 46
9 1 41
9 2 5
9 3 14
9 4 22
9 5 37
9 6 30
9 7 39
9 8 23
10 0 51
10 1 8
10 2 46
10 3 3
10 4 28
10 5 25
10 6 20
10 7 6
10 8 45
10 9 22
11 0 51
11 1 35
11 2 12
11 3 31
11 4 6
11 5 29
11 6 34
11 7 17
11 8 22
11 9 12
11 10 28
12 0 27
12 1 27
12 2 5
12 3 44
12 4 53
12 5 29
12 6 13
12 7 30
12 8 56
12 9 34
12 10 28
12 11 12
13 0 38
13 1 54
13 2 9
13 3 12
13 4 22
13 5 4
13 6 32
13 7 41
13 8 17
13 9 32
13 10 38
13 11 10
13 12 33
14 0 33
14 1 5
14 2 46
14 3 19
14 4 6
14 5 16
14 6 13
14 7 39
14 8 6
14 9 3
14 10 43
14 11 45
14 12 48
14 13 19
15 0 17
15 1 13
15 2 41
15 3 49
15 4 41
15 5 11
15 6 4
15 7 29
15 8 51
15 9 44
15 10 8
15 11 3
15 12 24
15 13 49
15 14 17
16 0 47
16 1 4
16 2 25
16 3 43
16 4 41
16 5 44
16 6 34
16 7 37
16 8 49
16 9 44
16 10 28
16 11 19
16 12 39
16 13 2
16 14 38
16 15 50
17 0 41
17 1 4
17 2 2
17 3 29
17 4 26
17 5 54
17 6 1
17 7 20
17 8 10
17 9 14
17 10 47
17 11 32
17 12 30
17 13 26
17 14 54
17 15 51
17 16 21
18 0 8
18 1 1
18 2 15
18 3 48
18 4 15
18 5 55
18 6 38
18 7 3
18 8 20
18 9 5
18 10 49
18 11 33
18 12 3
18 13 6
18 14 29
18 15 2
18 16 24
18 17 42
19 0 14
19 1 46
19 2 39
19 3 18
19 4 42
19 5 13
19 6 6
19 7 4
19 8 9
19 9 41
19 10 48
19 11 32
19 12 20
19 13 14
19 14 32
19 15 22
19 16 29
19 17 43
19 18 39
20 0 41
20 1 18
20 2 3
20 3 40
20 4 38
20 5 4
20 6 10
20 7 5
20 8 22
20 9 38
20 10 31
20 11 18
20 12 30
20 13 50
20 14 25
20 15 39
20 16 22
20 17 37
20 18 10
20 19 20
21 0 38
21 1 14
21 2 21
21 3 46
21 4 8
21 5 27
21 6 15
21 7 13
21 8 7
21 9 23
21 10 44
21 11 52
21 12 54
21 13 9
21 14 35
21 15 1
21 16 42
21 17 41
21 18 2
21 19 55
21 20 53
22 0 5
22 1 40
22 2 41
22 3 37
22 4 43
22 5 7
22 6 31
22 7 50
22 8 42
22 9 5
22 10 36
22 11 45
22 12 34
22 13 27
22 14 31
22 15 48
22 16 48
22 17 29
22 18 24
22 19 30
22 20 10
22 21 35
23 0 54
23 1 43
23 2 51
23 3 17
23 4 33
23 5 24
23 6 53
23 7 12
23 8 1
23 9 28
23 10 7
23 11 16
23 12 31
23 13 45
23 14 23
23 15 3
23 16 24
23 17 10
23 18 39
23 19 55
23 20 10
23 21 44
23 22 3
24 0 38
24 1 4
24 2 50
24 3 30
24 4 29
24 5 44
24 6 55
24 7 6
24 8 36
24 9 46
24 10 33
24 11 11
24 12 38
24 13 39
24 14 34
24 15 45
24 16 25
24 17 35
24 18 27
24 19 27
24 20 37
24 21 15
24 22 18
24 23 19
25 0 17
25 1 47
25 2 33
25 3 3
25 4 5
25 5 27
25 6 27
25 7 22
25 8 24
25 9 53
25 10 37
25 11 47
25 12 33
25 13 51
25 14 8
25 15 22
25 16 7
25 17 14
25 18 24
25 19 22
25 20 36
25 21 19
25 22 22
25 23 12
25 24 28
26 0 10
26 1 12
26 2 1
26 3 8
26 4 47
26 5 29
26 6 46
26 7 54
26 8 28
26 9 38
26 10 52
26 11 6
26 12 12
26 13 28
26 14 6
26 15 17
26 16 3
26 17 12
26 18 7
26 19 4
26 20 14
26 21 14
26 22 45
26 23 31
26 24 31
26 25 13
27 0 18
27 1 41
27 2 3
27 3 14
27 4 39
27 5 21
27 6 46
27 7 10
27 8 31
27 9 11
27 10 21
27 11 53
27 12 36
27 13 28
27 14 56
27 15 30
27 16 47
27 17 26
27 18 54
27 19 30
27 20 9
27 21 20
27 22 25
27 23 22
27 24 34
27 25 38
27 26 46
28 0 27
28 1 34
28 2 51
28 3 20
28 4 4
28 5 7
28 6 23
28 7 35
28 8 21
28 9 5
28 10 38
28 11 9
28 12 24
28 13 34
28 14 44
28 15 1
28 16 37
28 17 53
28 18 54
28 19 38
28 20 3
28 21 25
28 22 37
28 23 54
28 24 33
28 25 43
28 26 17
28 27 3
29 0 9
29 1 4
29 2 38
29 3 3
29 4 7
29 5 14
29 6 53
29 7 21
29 8 26
29 9 54
29 10 16
29 11 53
29 12 53
29 13 25
29 14 47
29 15 7
29 16 40
29 17 12
29 18 35
29 19 37
29 20 29
29 21 52
29 22 21
29 23 19
29 24 12
29 25 21
29 26 30
29 27 51
29 28 18
30 0 12
30 1 47
30 2 26
30 3 52
30 4 41
30 5 16
30 6 28
30 7 51
30 8 8
30 9 28
30 10 12
30 11 37
30 12 47
30 13 25
30 14 43
30 15 21
30 16 41
30 17 22
30 18 41
30 19 48
30 20 39
30 21 26
30 22 41
30 23 27
30 24 39
30 25 52
30 26 3
30 27 19
30 28 56
30 29 27
31 0 43
31 1 14
31 2 32
31 3 52
31 4 45
31 5 42
31 6 53
31 7 48
31 8 40
31 9 19
31 10 28
31 11 37
31 12 6
31 13 52
31 14 22
31 15 39
31 16 24
31 17 37
31 18 33
31 19 17
31 20 47
31 21 1
31 22 24
31 23 19
31 24 3
31 25 48
31 26 1
31 27 14
31 28 54
31 29 26
31 30 8
32 0 47
32 1 30
32 2 7
32 3 32
32 4 5
32 5 22
32 6 38
32 7 3
32 8 12
32 9 50
32 10 49
32 11 6
32 12 13
32 13 45
32 14 46
32 15 37
32 16 51
32 17 40
32 18 33
32 19 12
32 20 12
32 21 54
32 22 53
32 23 35
32 24 52
32 25 26
32 26 33
32 27 4
32 28 45
32 29 3
32 30 26
32 31 54
33 0 2
33 1 55
33 2 7
33 3 17
33 4 38
33 5 34
33 6 1
33 7 6
33 8 51
33 9 44
33 10 15
33 11 56
33 12 47
33 13 12
33 14 24
33 15 48
33 16 14
33 17 36
33 18 4
33 19 4
33 20 40
33 21 56
33 22 16
33 23 6
33 24 41
33 25 43
33 26 32
33 27 16
33 28 1
33 29 51
33 30 28
33 31 38
33 32 56
34 0 27
34 1 11
34 2 56
34 3 6
34 4 34
34 5 32
34 6 38
34 7 29
34 8 24
34 9 48
34 10 24
34 11 18
34 12 16
34 13 42
34 14 7
34 15 26
34 16 8
34 17 22
34 18 36
34 19 39
34 20 6
34 21 48
34 22 10
34 23 26
34 24 24
34 25 50
34 26 6
34 27 38
34 28 30
34 29 11
34 30 21
34 31 22
34 32 45
34 33 17
35 0 49
35 1 14
35 2 10
35 3 56
35 4 36
35 5 51
35 6 50
35 7 44
35 8 27
35 9 54
35 10 42
35 11 49
35 12 23
35 13 8
35 14 55
35 15 29
35 16 17
35 17 29
35 18 22
35 19 52
35 20 13
35 21 14
35 22 20
35 23 7
35 24 42
35 25 9
35 26 3
35 27 53
35 28 41
35 29 49
35 30 46
35 31 40
35 32 50
35 33 32
35 34 26
36 0 56
36 1 54
36 2 30
36 3 6
36 4 22
36 5 53
36 6 45
36 7 50
36 8 17
36 9 8
36 10 5
36 11 22
36 12 19
36 13 1
36 14 21
36 15 40
36 16 30
36 17 40
36 18 52
36 19 38
36 20 35
36 21 55
36 22 39
36 23 35
36 24 12
36 25 50
36 26 21
36 27 21
36 28 17
36 29 28
36 30 32
36 31 42
36 32 40
36 33 26
36 34 40
36 35 36
37 0 20
37 1 1
37 2 49
37 3 21
37 4 16
37 5 3
37 6 27
37 7 55
37 8 1
37 9 9
37 10 32
37 11 27
37 12 38
37 13 44
37 14 20
37 15 34
37 16 43
37 17 53
37 18 41
37 19 7
37 20 44
37 21 9
37 22 24
37 23 2
37 24 44
37 25 24
37 26 51
37 27 17
37 28 49
37 29 33
37 30 51
37 31 27
37 32 6
37 33 12
37 34 31
37 35 55
37 36 56
38 0 56
38 1 12
38 2 25
38 3 11
38 4 17
38 5 43
38 6 27
38 7 38
38 8 7
38 9 37
38 10 4
38 11 17
38 12 50
38 13 7
38 14 51
38 15 3
38 16 46
38 17 23
38 18 46
38 19 4
38 20 29
38 21 45
38 22 2
38 23 12
38 24 11
38 25 56
38 26 43
38 27 56
38 28 56
38 29 43
38 30 22
38 31 48
38 32 37
38 33 13
38 34 20
38 35 18
38 36 54
38 37 15
39 0 31
39 1 25
39 2 41
39 3 31
39 4 36
39 5 32
39 6 1
39 7 25
39 8 38
39 9 19
39 10 53
39 11 46
39 12 2
39 13 26
39 14 24
39 15 14
39 16 25
39 17 35
39 18 23
39 19 32
39 20 37
39 21 37
39 22 39
39 23 18
39 24 1
39 25 50
39 26 23
39 27 39
39 28 55
39 29 51
39 30 24
39 31 18
39 32 25
39 33 41
39 34 41
39 35 32
39 36 13
39 37 45
39 38 9
40 0 17
40 1 13
40 2 8
40 3 7
40 4 32
40 5 5
40 6 56
40 7 27
40 8 18
40 9 14
40 10 29
40 11 15
40 12 11
40 13 1
40 14 16
40 15 9
40 16 9
40 17 38
40 18 50
40 19 56
40 20 19
40 21 55
40 22 47
40 23 28
40 24 23
40 25 32
40 26 25
40 27 6
40 28 21
40 29 50
40 30 23
40 31 38
40 32 32
40 33 12
40 34 21
40 35 15
40 36 17
40 37 9
40 38 41
40 39 24
41 0 25
41 1 13
41 2 7
41 3 35
41 4 39
41 5 15
41 6 46
41 7 37
41 8 37
41 9 31
41 10 42
41 11 25
41 12 41
41 13 19
41 14 34
41 15 16
41 16 27
41 17 44
41 18 50
41 19 27
41 20 3
41 21 34
41 22 15
41 23 8
41 24 38
41 25 50
41 26 42
41 27 22
41 28 34
41 29 7
41 30 53
41 31 11
41 32 39
41 33 3
41 34 38
41 35 48
41 36 27
41 37 9
41 38 21
41 39 31
41 40 51
42 0 42
42 1 43
42 2 41
42 3 34
42 4 53
42 5 37
42 6 55
42 7 17
42 8 12
42 9 6
42 10 53
42 11 21
42 12 3
42 13 54
42 14 12
42 15 53
42 16 56
42 17 55
42 18 23
42 19 20
42 20 10
42 21 29
42 22 40
42 23 3
42 24 54
42 25 45
42 26 38
42 27 43
42 28 29
42 29 22
42 30 11
42 31 56
42 32 15
42 33 51
42 34 34
42 35 1
42 36 30
42 37 34
42 38 39
42 39 37
42 40 55
42 41 5
43 0 43
43 1 4
43 2 23
43 3 9
43 4 19
43 5 44
43 6 27
43 7 5
43 8 48
43 9 53
43 10 42
43 11 9
43 12 36
43 13 41
43 14 35
43 15 41
43 16 50
43 17 49
43 18 3
43 19 55
43 20 33
43 21 15
43 22 39
43 23 4
43 24 22
43 25 42
43 26 24
43 27 32
43 28 7
43 29 40
43 30 54
43 31 6
43 32 15
43 33 8
43 34 8
43 35 43
43 36 30
43 37 2
43 38 14
43 39 36
43 40 43
43 41 33
43 42 14
44 0 40
44 1 12
44 2 21
44 3 51
44 4 33
44 5 14
44 6 30
44 7 8
44 8 12
44 9 13
44 10 35
44 11 56
44 12 20
44 13 42
44 14 32
44 15 16
44 16 24
44 17 25
44 18 14
44 19 39
44 20 1
44 21 28
44 22 7
44 23 40
44 24 17
44 25 14
44 26 14
44 27 55
44 28 9
44 29 22
44 30 35
44 31 43
44 32 21
44 33 55
44 34 26
44 35 35
44 36 39
44 37 6
44 38 9
44 39 33
44 40 20
44 41 53
44 42 44
44 43 15
45 0 25
45 1 25
45 2 24
45 3 49
45 4 4
45 5 2
45 6 50
45 7 56
45 8 24
45 9 8
45 10 19
45 11 26
45 12 8
45 13 4
45 14 51
45 15 54
45 16 13
45 17 54
45 18 42
45 19 55
45 20 5
45 21 33
45 22 25
45 23 20
45 24 48
45 25 19
45 26 4
45 27 24
45 28 13
45 29 30
45 30 34
45 31 33
45 32 40
45 33 8
45 34 48
45 35 53
45 36 42
45 37 16
45 38 31
45 39 49
45 40 7
45 41 8
45 42 12
45 43 18
45 44 44
46 0 29
46 1 45
46 2 41
46 3 51
46 4 29
46 5 20
46 6 47
46 7 41
46 8 34
46 9 7
46 10 10
46 11 35
46 12 55
46 13 49
46 14 39
46 15 21
46 16 39
46 17 20
46 18 43
46 19 39
46 20 11
46 21 9
46 22 48
46 23 17
46 24 18
46 25 30
46 26 13
46 27 13
46 28 36
46 29 33
46 30 36
46 31 11
46 32 48
46 33 12
46 34 2
46 35 54
46 36 37
46 37 43
46 38 23
46 39 24
46 40 12
46 41 54
46 42 30
46 43 32
46 44 9
46 45 38
47 0 12
47 1 25
47 2 38
47 3 52
47 4 6
47 5 11
47 6 25
47 7 43
47 8 30
47 9 26
47 10 50
47 11 52
47 12 38
47 13 34
47 14 37
47 15 51
47 16 50
47 17 1
47 18 47
47 19 15
47 20 25
47 21 8
47 22 21
47 23 31
47 24 33
47 25 46
47 26 6
47 27 12
47 28 52
47 29 32
47 30 42
47 31 21
47 32 20
47 33 23
47 34 11
47 35 13
47 36 10
47 37 42
47 38 51
47 39 23
47 40 6
47 41 7
47 42 3
47 43 46
47 44 17
47 45 55
47 46 50
48 0 34
48 1 31
48 2 50
48 3 28
48 4 11
48 5 13
48 6 26
48 7 41
48 8 42
48 9 54
48 10 22
48 11 9
48 12 21
48 13 41
48 14 6
48 15 12
48 16 54
48 17 49
48 18 51
48 19 5
48 20 22
48 21 36
48 22 39
48 23 38
48 24 31
48 25 44
48 26 36
48 27 54
48 28 36
48 29 27
48 30 23
48 31 29
48 32 17
48 33 45
48 34 41
48 35 55
48 36 32
48 37 8
48 38 29
48 39 43
48 40 12
48 41 31
48 42 38
48 43 16
48 44 22
48 45 55
48 46 30
48 47 23
49 0 44
49 1 35
49 2 25
49 3 9
49 4 1
49 5 1
49 6 36
49 7 37
49 8 29
49 9 31
49 10 5
49 11 39
49 12 23
49 13 35
49 14 21
49 15 54
49 16 7
49 17 23
49 18 56
49 19 12
49 20 38
49 21 9
49 22 39
49 23 11
49 24 50
49 25 31
49 26 33
49 27 10
49 28 50
49 29 8
49 30 22
49 31 17
49 32 47
49 33 20
49 34 41
49 35 56
49 36 34
49 37 24
49 38 37
49 39 17
49 40 51
49 41 4
49 42 31
49 43 3
49 44 55
49 45 53
49 46 13
49 47 40
49 48 55
50 0 19
50 1 55
50 2 45
50 3 40
50 4 15
50 5 32
50 6 9
50 7 3
50 8 10
50 9 41
50 10 8
50 11 32
50 12 51
50 13 34
50 14 44
50 15 1
50 16 31
50 17 55
50 18 36
50 19 37
50 20 26
50 21 32
50 22 27
50 23 42
50 24 17
50 25 23
50 26 13
50 27 22
50 28 17
50 29 21
50 30 1
50 31 49
50 32 40
50 33 5
50 34 42
50 35 6
50 36 16
50 37 3
50 38 8
50 39 34
50 40 24
50 41 34
50 42 43
50 43 21
50 44 55
50 45 48
50 46 25
50 47 25
50 48 8
50 49 7
51 0 26
51 1 5
51 2 47
51 3 13
51 4 9
51 5 51
51 6 25
51 7 36
51 8 41
51 9 7
51 10 51
51 11 30
51 12 42
51 13 7
51 14 27
51 15 7
51 16 14
51 17 45
51 18 34
51 19 43
51 20 35
51 21 22
51 22 48
51 23 53
51 24 48
51 25 48
51 26 46
51 27 45
51 28 22
51 29 41
51 30 17
51 31 8
51 32 54
51 33 25
51 34 16
51 35 46
51 36 15
51 37 15
51 38 34
51 39 2
51 40 4
51 41 21
51 42 11
51 43 8
51 44 9
51 45 37
51 46 14
51 47 31
51 48 26
51 49 29
51 50 54
52 0 15
52 1 50
52 2 25
52 3 19
52 4 52
52 5 6
52 6 24
52 7 26
52 8 23
52 9 53
52 10 14
52 11 14
52 12 19
52 13 24
52 14 10
52 15 17
52 16 7
52 17 24
52 18 4
52 19 36
52 20 31
52 21 30
52 22 18
52 23 28
52 24 28
52 25 37
52 26 21
52 27 4
52 28 46
52 29 18
52 30 2
52 31 15
52 32 21
52 33 49
52 34 15
52 35 49
52 36 34
52 37 49
52 38 36
52 39 16
52 40 10
52 41 30
52 42 24
52 43 2
52 44 32
52 45 46
52 46 55
52 47 50
52 48 46
52 49 45
52 50 9
52 51 52
53 0 32
53 1 3
53 2 23
53 3 51
53 4 8
53 5 33
53 6 18
53 7 8
53 8 33
53 9 16
53 10 28
53 11 20
53 12 24
53 13 48
53 14 7
53 15 23
53 16 56
53 17 4
53 18 23
53 19 43
53 20 26
53 21 21
53 22 56
53 23 15
53 24 36
53 25 32
53 26 2
53 27 22
53 28 41
53 29 42
53 30 17
53 31 5
53 32 7
53 33 51
53 34 39
53 35 1
53 36 5
53 37 56
53 38 56
53 39 40
53 40 3
53 41 7
53 42 40
53 43 43
53 44 33
53 45 16
53 46 19
53 47 27
53 48 30
53 49 44
53 50 25
53 51 18
53 52 43
54 0 18
54 1 19
54 2 54
54 3 27
54 4 15
54 5 15
54 6 14
54 7 7
54 8 43
54 9 23
54 10 48
54 11 16
54 12 29
54 13 2
54 14 42
54 15 6
54 16 26
54 17 38
54 18 42
54 19 12
54 20 41
54 21 18
54 22 31
54 23 3
54 24 33
54 25 29
54 26 11
54 27 11
54 28 13
54 29 20
54 30 3
54 31 54
54 32 33
54 33 39
54 34 17
54 35 26
54 36 28
54 37 39
54 38 44
54 39 1
54 40 7
54 41 50
54 42 45
54 43 20
54 44 15
54 45 23
54 46 4
54 47 56
54 48 46
54 49 39
54 50 47
54 51 7
54 52 47
54 53 12
55 0 55
55 1 25
55 2 49
55 3 50
55 4 46
55 5 52
55 6 23
55 7 4
55 8 28
55 9 35
55 10 32
55 11 28
55 12 21
55 13 37
55 14 35
55 15 35
55 16 54
55 17 24
55 18 42
55 19 50
55 20 10
55 21 10
55 22 14
55 23 12
55 24 46
55 25 53
55 26 55
55 27 36
55 28 45
55 29 14
55 30 49
55 31 42
55 32 24
55 33 56
55 34 44
55 35 34
55 36 40
55 37 46
55 38 51
55 39 1
55 40 27
55 41 16
55 42 37
55 43 37
55 44 2
55 45 11
55 46 32
55 47 56
55 48 14
55 49 35
55 50 53
55 51 32
55 52 33
55 53 25
55 54 1
56 0 31
56 1 26
56 2 39
56 3 39
56 4 43
56 5 36
56 6 37
56 7 39
56 8 2
56 9 6
56 10 50
56 11 15
56 12 53
56 13 54
56 14 25
56 15 43
56 16 29
56 17 47
56 18 44
56 19 51
56 20 42
56 21 33
56 22 26
56 23 32
56 24 39
56 25 16
56 26 28
56 27 12
56 28 24
56 29 49
56 30 53
56 31 25
56 32 25
56 33 50
56 34 50
56 35 19
56 36 7
56 37 14
56 38 20
56 39 22
56 40 12
56 41 45
56 42 29
56 43 18
56 44 34
56 45 19
56 46 7
56 47 6
56 48 52
56 49 12
56 50 23
56 51 54
56 52 25
56 53 38
56 54 21
56 55 56
57 0 39
57 1 40
57 2 44
57 3 1
57 4 27
57 5 47
57 6 46
57 7 26
57 8 11
57 9 12
57 10 20
57 11 40
57 12 56
57 13 9
57 14 31
57 15 2
57 16 42
57 17 41
57 18 41
57 19 44
57 20 6
57 21 51
57 22 11
57 23 4
57 24 1
57 25 47
57 26 17
57 27 41
57 28 38
57 29 55
57 30 43
57 31 7
57 32 28
57 33 56
57 34 17
57 35 29
57 36 39
57 37 3
57 38 51
57 39 45
57 40 36
57 41 28
57 42 22
57 43 44
57 44 4
57 45 22
57 46 54
57 47 29
57 48 40
57 49 15
57 50 12
57 51 8
57 52 48
57 53 52
57 54 18
57 55 28
57 56 14
58 0 19
58 1 40
58 2 9
58 3 53
58 4 1
58 5 31
58 6 48
58 7 18
58 8 9
58 9 20
58 10 27
58 11 7
58 12 36
58 13 1
58 14 49
58 15 23
58 16 34
58 17 54
58 18 28
58 19 43
58 20 11
58 21 4
58 22 15
58 23 3
58 24 44
58 25 36
58 26 18
58 27 37
58 28 31
58 29 40
58 30 43
58 31 56
58 32 27
58 33 13
58 34 8
58 35 36
58 36 53
58 37 5
58 38 34
58 39 22
58 40 32
58 41 50
58 42 51
58 43 18
58 44 2
58 45 9
58 46 26
58 47 13
58 48 52
58 49 8
58 50 31
58 51 27
58 52 47
58 53 21
58 54 5
58 55 48
58 56 20
58 57 5
59 0 23
59 1 47
59 2 40
59 3 29
59 4 28
59 5 52
59 6 55
59 7 8
59 8 8
59 9 17
59 10 19
59 11 21
59 12 56
59 13 16
59 14 41
59 15 48
59 16 52
59 17 26
59 18 44
59 19 48
59 20 29
59 21 11
59 22 10
59 23 12
59 24 10
59 25 52
59 26 20
59 27 42
59 28 49
59 29 38
59 30 33
59 31 10
59 32 28
59 33 33
59 34 43
59 35 54
59 36 26
59 37 9
59 38 15
59 39 35
59 40 5
59 41 47
59 42 54
59 43 24
59 44 39
59 45 5
59 46 2
59 47 24
59 48 29
59 49 46
59 50 17
59 51 23
59 52 56
59 53 4
59 54 10
59 55 6
59 56 51
59 57 20
59 58 24
60 0 37
60 1 28
60 2 45
60 3 22
60 4 28
60 5 22
60 6 12
60 7 22
60 8 44
60 9 13
60 10 35
60 11 14
60 12 7
60 13 5
60 14 52
60 15 30
60 16 28
60 17 8
60 18 46
60 19 35
60 20 21
60 21 18
60 22 47
60 23 39
60 24 14
60 25 32
60 26 30
60 27 37
60 28 31
60 29 22
60 30 49
60 31 3
60 32 26
60 33 25
60 34 29
60 35 44
60 36 44
60 37 27
60 38 27
60 39 17
60 40 20
60 41 1
60 42 19
60 43 8
60 44 30
60 45 13
60 46 11
60 47 30
60 48 23
60 49 22
60 50 34
60 51 3
60 52 13
60 53 22
60 54 35
60 55 28
60 56 6
60 57 26
60 58 28
60 59 56
61 0 27
61 1 7
61 2 42
61 3 21
61 4 40
61 5 41
61 6 21
61 7 35
61 8 12
61 9 27
61 10 44
61 11 3
61 12 7
61 13 27
61 14 39
61 15 12
61 16 32
61 17 23
61 18 31
61 19 56
61 20 40
61 21 46
61 22 2
61 23 10
61 24 38
61 25 1
61 26 1
61 27 27
61 28 21
61 29 11
61 30 21
61 31 2
61 32 12
61 33 16
61 34 32
61 35 27
61 36 22
61 37 35
61 38 28
61 39 23
61 40 42
61 41 10
61 42 33
61 43 46
61 44 43
61 45 26
61 46 38
61 47 32
61 48 56
61 49 2
61 50 26
61 51 14
61 52 10
61 53 56
61 54 20
61 55 50
61 56 42
61 57 25
61 58 3
61 59 25
61 60 19
62 0 20
62 1 20
62 2 48
62 3 42
62 4 28
62 5 41
62 6 8
62 7 13
62 8 21
62 9 51
62 10 6
62 11 20
62 12 13
62 13 30
62 14 12
62 15 28
62 16 44
62 17 12
62 18 53
62 19 51
62 20 47
62 21 10
62 22 39
62 23 47
62 24 22
62 25 47
62 26 49
62 27 8
62 28 42
62 29 8
62 30 53
62 31 30
62 32 26
62 33 37
62 34 30
62 35 7
62 36 31
62 37 27
62 38 36
62 39 1
62 40 6
62 41 40
62 42 47
62 43 16
62 44 2
62 45 47
62 46 55
62 47 25
62 48 3
62 49 26
62 50 27
62 51 4
62 52 39
62 53 6
62 54 38
62 55 26
62 56 11
62 57 2
62 58 24
62 59 29
62 60 28
62 61 21
63 0 8
63 1 53
63 2 35
63 3 50
63 4 53
63 5 34
63 6 18
63 7 23
63 8 28
63 9 43
63 10 30
63 11 24
63 12 44
63 13 23
63 14 21
63 15 31
63 16 47
63 17 44
63 18 21
63 19 1
63 20 28
63 21 5
63 22 19
63 23 3
63 24 7
63 25 41
63 26 3
63 27 3
63 28 13
63 29 43
63 30 37
63 31 45
63 32 29
63 33 17
63 34 25
63 35 15
63 36 33
63 37 1
63 38 22
63 39 34
63 40 19
63 41 8
63 42 41
63 43 16
63 44 46
63 45 24
63 46 14
63 47 46
63 48 16
63 49 8
63 50 12
63 51 15
63 52 17
63 53 45
63 54 11
63 55 26
63 56 27
63 57 32
63 58 52
63 59 43
63 60 8
63 61 14
63 62 15
64 0 40
64 1 42
64 2 22
64 3 38
64 4 50
64 5 15
64 6 56
64 7 53
64 8 54
64 9 30
64 10 36
64 11 53
64 12 27
64 13 25
64 14 14
64 15 39
64 16 9
64 17 16
64 18 45
64 19 8
64 20 35
64 21 51
64 22 29
64 23 7
64 24 43
64 25 20
64 26 21
64 27 46
64 28 15
64 29 53
64 30 9
64 31 15
64 32 53
64 33 20
64 34 20
64 35 8
64 36 4
64 37 52
64 38 19
64 39 28
64 40 27
64 41 9
64 42 50
64 43 21
64 44 26
64 45 25
64 46 8
64 47 31
64 48 42
64 49 10
64 50 2
64 51 34
64 52 47
64 53 51
64 54 15
64 55 15
64 56 33
64 57 22
64 58 19
64 59 30
64 60 53
64 61 8
64 62 41
64 63 18
65 0 8
65 1 35
65 2 50
65 3 21
65 4 32
65 5 25
65 6 9
65 7 39
65 8 30
65 9 35
65 10 56
65 11 51
65 12 13
65 13 42
65 14 7
65 15 12
65 16 43
65 17 20
65 18 18
65 19 42
65 20 16
65 21 11
65 22 8
65 23 41
65 24 7
65 25 55
65 26 42
65 27 30
65 28 54
65 29 44
65 30 33
65 31 29
65 32 55
65 33 14
65 34 34
65 35 29
65 36 51
65 37 24
65 38 17
65 39 5
65 40 9
65 41 29
65 42 40
65 43 55
65 44 33
65 45 10
65 46 12
65 47 22
65 48 31
65 49 4
65 50 39
65 51 6
65 52 10
65 53 41
65 54 29
65 55 25
65 56 19
65 57 7
65 58 11
65 59 36
65 60 20
65 61 8
65 62 52
65 63 10
65 64 34
66 0 15
66 1 16
66 2 1
66 3 35
66 4 53
66 5 30
66 6 53
66 7 20
66 8 24
66 9 45
66 10 17
66 11 25
66 12 13
66 13 38
66 14 1
66 15 55
66 16 13
66 17 1
66 18 29
66 19 53
66 20 21
66 21 21
66 22 51
66 23 16
66 24 8
66 25 52
66 26 50
66 27 25
66 28 36
66 29 51
66 30 39
66 31 39
66 32 38
66 33 8
66 34 27
66 35 32
66 36 17
66 37 50
66 38 53
66 39 15
66 40 34
66 41 19
66 42 35
66 43 5
66 44 48
66 45 20
66 46 47
66 47 41
66 48 13
66 49 11
66 50 43
66 51 25
66 52 35
66 53 33
66 54 56
66 55 20
66 56 28
66 57 6
66 58 13
66 59 5
66 60 26
66 61 50
66 62 13
66 63 55
66 64 21
66 65 7
67 0 22
67 1 11
67 2 50
67 3 48
67 4 3
67 5 36
67 6 50
67 7 48
67 8 32
67 9 26
67 10 14
67 11 50
67 12 22
67 13 31
67 14 33
67 15 30
67 16 26
67 17 17
67 18 24
67 19 10
67 20 40
67 21 35
67 22 31
67 23 4
67 24 22
67 25 51
67 26 28
67 27 37
67 28 29
67 29 17
67 30 45
67 31 13
67 32 52
67 33 46
67 34 51
67 35 44
67 36 16
67 37 52
67 38 23
67 39 46
67 40 23
67 41 27
67 42 36
67 43 6
67 44 34
67 45 29
67 46 51
67 47 56
67 48 46
67 49 6
67 50 54
67 51 32
67 52 55
67 53 4
67 54 20
67 55 35
67 56 34
67 57 35
67 58 2
67 59 45
67 60 40
67 61 2
67 62 45
67 63 39
67 64 40
67 65 52
67 66 10
